Results/Experiment 2 Results/New Benchmark/output_p1_0.25_p2_0.00_n_40_11.lp
clingo version 5.4.0
Reading from tempSRTISolver.lp ...
Solving...
Answer: 1
matched(2,4) matched(6,7) matched(1,8) matched(10,11) matched(18,14) matched(13,16) matched(20,17) matched(14,18) matched(17,20) matched(16,13) matched(24,22) matched(25,23) matched(22,24) matched(23,25) matched(26,27) matched(28,21) matched(29,31) matched(30,32) matched(31,29) matched(35,34) matched(34,35) matched(39,38) matched(37,40) matched(36,33) matched(5,3) matched(3,5) matched(7,6) matched(11,10) matched(9,12) matched(27,26) matched(40,37) matched(4,2) matched(21,28) matched(32,30) matched(33,36) matched(8,1) matched(12,9) matched(38,39) matched(19,15) matched(15,19)
Optimization: 388
Answer: 2
matched(2,4) matched(6,7) matched(1,8) matched(10,11) matched(15,14) matched(13,16) matched(20,17) matched(19,18) matched(17,20) matched(16,13) matched(24,22) matched(25,23) matched(22,24) matched(23,25) matched(26,27) matched(28,21) matched(29,31) matched(30,32) matched(31,29) matched(36,34) matched(37,35) matched(39,38) matched(33,40) matched(40,33) matched(5,3) matched(3,5) matched(7,6) matched(11,10) matched(9,12) matched(27,26) matched(35,37) matched(4,2) matched(21,28) matched(32,30) matched(34,36) matched(8,1) matched(12,9) matched(38,39) matched(14,15) matched(18,19)
Optimization: 373
Answer: 3
matched(2,4) matched(6,7) matched(1,8) matched(10,11) matched(18,14) matched(13,16) matched(20,17) matched(14,18) matched(17,20) matched(16,13) matched(24,22) matched(25,23) matched(22,24) matched(23,25) matched(26,27) matched(28,21) matched(29,31) matched(30,32) matched(31,29) matched(36,34) matched(37,35) matched(39,38) matched(33,40) matched(40,33) matched(5,3) matched(3,5) matched(7,6) matched(11,10) matched(9,12) matched(27,26) matched(35,37) matched(4,2) matched(21,28) matched(32,30) matched(34,36) matched(8,1) matched(12,9) matched(38,39) matched(19,15) matched(15,19)
Optimization: 371
Answer: 4
matched(2,4) matched(6,7) matched(1,8) matched(9,11) matched(18,14) matched(13,16) matched(20,17) matched(14,18) matched(17,20) matched(16,13) matched(24,22) matched(25,23) matched(22,24) matched(23,25) matched(26,27) matched(28,21) matched(29,31) matched(30,32) matched(31,29) matched(36,34) matched(37,35) matched(39,38) matched(33,40) matched(40,33) matched(5,3) matched(3,5) matched(7,6) matched(12,10) matched(10,12) matched(27,26) matched(35,37) matched(4,2) matched(21,28) matched(32,30) matched(34,36) matched(8,1) matched(11,9) matched(38,39) matched(19,15) matched(15,19)
Optimization: 369
Answer: 5
matched(5,4) matched(6,7) matched(1,8) matched(9,11) matched(16,14) matched(14,16) matched(15,17) matched(19,18) matched(13,20) matched(20,13) matched(24,22) matched(25,23) matched(22,24) matched(23,25) matched(26,27) matched(28,21) matched(29,31) matched(30,32) matched(31,29) matched(36,34) matched(37,35) matched(39,38) matched(33,40) matched(40,33) matched(2,3) matched(4,5) matched(7,6) matched(12,10) matched(10,12) matched(27,26) matched(35,37) matched(3,2) matched(21,28) matched(32,30) matched(34,36) matched(8,1) matched(11,9) matched(38,39) matched(17,15) matched(18,19)
Optimization: 365
Answer: 6
matched(2,4) matched(6,7) matched(1,8) matched(9,11) matched(16,14) matched(14,16) matched(15,17) matched(19,18) matched(13,20) matched(20,13) matched(24,22) matched(25,23) matched(22,24) matched(23,25) matched(26,27) matched(28,21) matched(29,31) matched(30,32) matched(31,29) matched(36,34) matched(37,35) matched(39,38) matched(33,40) matched(40,33) matched(5,3) matched(3,5) matched(7,6) matched(12,10) matched(10,12) matched(27,26) matched(35,37) matched(4,2) matched(21,28) matched(32,30) matched(34,36) matched(8,1) matched(11,9) matched(38,39) matched(17,15) matched(18,19)
Optimization: 363
OPTIMUM FOUND

Models       : 6
  Optimum    : yes
Optimization : 363
Calls        : 1
Time         : 0.510s (Solving: 0.15s 1st Model: 0.00s Unsat: 0.14s)
CPU Time     : 0.508s
